\ SCIP STATISTICS
\   Problem name     : SetCover-100-150
\   Variables        : 150 (150 binary, 0 integer, 0 implicit integer, 0 continuous)
\   Constraints      : 100
Minimize
 Obj: +21 x0 +84 x1 +60 x2 +60 x3 +30 x4 +86 x5 +57 x6 +17 x7 +62 x8 +99 x9 +51 x10 +50 x11 +86 x12 +73 x13
      +46 x14 +18 x15 +53 x16 +21 x17 +37 x18 +77 x19 +63 x20 +66 x21 +84 x22 +3 x23 +3 x24 +48 x25 +69 x26
      +5 x27 +62 x28 +81 x29 +31 x30 +77 x31 +10 x32 +91 x33 +34 x34 +35 x35 +80 x36 +92 x37 +85 x38 +8 x39
      +15 x40 +39 x41 +49 x42 +48 x43 +25 x44 +64 x45 +72 x46 +31 x47 +50 x48 +90 x49 +57 x50 +6 x51 +56 x52
      +38 x53 +89 x54 +62 x55 +2 x56 +64 x57 +61 x58 +30 x59 +2 x60 +40 x61 +4 x62 +23 x63 +44 x64 +64 x65
      +16 x66 +60 x67 +64 x68 +2 x69 +97 x70 +15 x71 +45 x72 +90 x73 +75 x74 +49 x75 +78 x76 +79 x77 +45 x78
      +86 x79 +5 x80 +38 x81 +93 x82 +50 x83 +5 x84 +22 x85 +10 x86 +46 x87 +62 x88 +67 x89 +80 x90 +45 x91
      +71 x92 +48 x93 +33 x94 +59 x95 +28 x96 +70 x97 +90 x98 +97 x99 +35 x100 +84 x101 +63 x102 +94 x103
      +10 x104 +9 x105 +50 x106 +12 x107 +8 x108 +19 x109 +91 x110 +55 x111 +38 x112 +8 x113 +75 x114
      +95 x115 +56 x116 +69 x117 +46 x118 +76 x119 +50 x120 +67 x121 +83 x122 +10 x123 +14 x124 +21 x125
      +17 x126 +76 x127 +25 x128 +63 x129 +77 x130 +24 x131 +40 x132 +85 x133 +60 x134 +27 x135 +58 x136
      +50 x137 +54 x138 +92 x139 +48 x140 +81 x141 +56 x142 +46 x143 +25 x144 +25 x145 +37 x146 +94 x147
      +60 x148 +23 x149
Subject to
 c0: +1 x0 +1 x6 +1 x7 +1 x9 +1 x11 +1 x13 +1 x16 +1 x18 +1 x21 +1 x26 +1 x42 +1 x48 +1 x51 +1 x52 +1 x55
  +1 x68 +1 x82 +1 x85 +1 x86 +1 x92 +1 x97 +1 x100 +1 x103 +1 x117 +1 x131 +1 x132 +1 x133 +1 x136 +1 x138
  >= +1
 c1: +1 x2 +1 x11 +1 x14 +1 x20 +1 x26 +1 x33 +1 x36 +1 x39 +1 x48 +1 x51 +1 x53 +1 x58 +1 x59 +1 x61
  +1 x66 +1 x75 +1 x83 +1 x86 +1 x92 +1 x95 +1 x96 +1 x97 +1 x103 +1 x111 +1 x116 +1 x117 +1 x122 +1 x124
  +1 x131 >= +1
 c2: +1 x3 +1 x12 +1 x15 +1 x17 +1 x18 +1 x19 +1 x23 +1 x24 +1 x36 +1 x37 +1 x41 +1 x43 +1 x53 +1 x63
  +1 x64 +1 x65 +1 x71 +1 x76 +1 x79 +1 x92 +1 x95 +1 x100 +1 x105 +1 x109 +1 x117 +1 x120 +1 x126 +1 x128
  +1 x132 +1 x133 +1 x138 +1 x145 >= +1
 c3: +1 x2 +1 x4 +1 x7 +1 x16 +1 x20 +1 x23 +1 x26 +1 x36 +1 x42 +1 x44 +1 x45 +1 x48 +1 x52 +1 x53 +1 x55
  +1 x56 +1 x74 +1 x85 +1 x90 +1 x98 +1 x101 +1 x103 +1 x107 +1 x136 +1 x143 +1 x146 >= +1
 c4: +1 x0 +1 x22 +1 x25 +1 x31 +1 x33 +1 x43 +1 x50 +1 x55 +1 x58 +1 x63 +1 x64 +1 x67 +1 x68 +1 x69
  +1 x80 +1 x81 +1 x85 +1 x87 +1 x100 +1 x120 +1 x124 +1 x127 +1 x134 +1 x138 +1 x143 >= +1
 c5: +1 x4 +1 x13 +1 x17 +1 x21 +1 x31 +1 x32 +1 x40 +1 x42 +1 x50 +1 x54 +1 x55 +1 x66 +1 x72 +1 x77
  +1 x83 +1 x92 +1 x96 +1 x107 +1 x116 +1 x120 +1 x123 +1 x129 +1 x133 +1 x135 +1 x146 >= +1
 c6: +1 x0 +1 x4 +1 x6 +1 x13 +1 x16 +1 x18 +1 x20 +1 x22 +1 x29 +1 x30 +1 x36 +1 x37 +1 x39 +1 x40 +1 x43
  +1 x54 +1 x56 +1 x70 +1 x73 +1 x78 +1 x83 +1 x85 +1 x92 +1 x94 +1 x97 +1 x100 +1 x108 +1 x109 +1 x111
  +1 x112 +1 x115 +1 x116 +1 x120 +1 x131 +1 x140 +1 x141 +1 x142 +1 x148 >= +1
 c7: +1 x1 +1 x16 +1 x19 +1 x34 +1 x38 +1 x52 +1 x55 +1 x59 +1 x61 +1 x64 +1 x65 +1 x67 +1 x72 +1 x82
  +1 x89 +1 x90 +1 x91 +1 x93 +1 x94 +1 x99 +1 x106 +1 x111 +1 x112 +1 x117 +1 x123 +1 x125 +1 x129 +1 x130
  +1 x132 +1 x133 +1 x134 +1 x135 +1 x139 +1 x146 >= +1
 c8: +1 x1 +1 x10 +1 x11 +1 x16 +1 x24 +1 x28 +1 x32 +1 x38 +1 x42 +1 x48 +1 x49 +1 x50 +1 x54 +1 x59
  +1 x60 +1 x62 +1 x64 +1 x67 +1 x70 +1 x80 +1 x83 +1 x88 +1 x91 +1 x94 +1 x100 +1 x104 +1 x114 +1 x121
  +1 x125 +1 x126 +1 x130 +1 x134 +1 x136 +1 x139 +1 x140 +1 x146 >= +1
 c9: +1 x3 +1 x14 +1 x16 +1 x19 +1 x26 +1 x36 +1 x42 +1 x57 +1 x63 +1 x67 +1 x70 +1 x73 +1 x79 +1 x81
  +1 x82 +1 x85 +1 x89 +1 x92 +1 x101 +1 x107 +1 x115 +1 x123 +1 x124 +1 x135 +1 x141 +1 x143 +1 x145
  +1 x149 >= +1
 c10: +1 x3 +1 x12 +1 x20 +1 x28 +1 x33 +1 x37 +1 x43 +1 x44 +1 x46 +1 x47 +1 x49 +1 x50 +1 x52 +1 x56
  +1 x66 +1 x69 +1 x70 +1 x75 +1 x77 +1 x81 +1 x89 +1 x98 +1 x108 +1 x113 +1 x114 +1 x123 +1 x128 +1 x131
  +1 x137 +1 x143 +1 x147 +1 x148 +1 x149 >= +1
 c11: +1 x0 +1 x6 +1 x9 +1 x12 +1 x19 +1 x21 +1 x22 +1 x28 +1 x30 +1 x32 +1 x33 +1 x35 +1 x48 +1 x50 +1 x53
  +1 x55 +1 x58 +1 x64 +1 x65 +1 x67 +1 x73 +1 x74 +1 x81 +1 x86 +1 x91 +1 x96 +1 x99 +1 x101 +1 x103
  +1 x113 +1 x121 +1 x126 +1 x129 +1 x134 +1 x135 +1 x142 +1 x143 +1 x144 +1 x147 +1 x149 >= +1
 c12: +1 x1 +1 x6 +1 x7 +1 x9 +1 x19 +1 x28 +1 x32 +1 x35 +1 x39 +1 x47 +1 x51 +1 x54 +1 x59 +1 x62 +1 x65
  +1 x68 +1 x84 +1 x86 +1 x87 +1 x88 +1 x90 +1 x93 +1 x94 +1 x108 +1 x121 +1 x125 +1 x137 +1 x145 +1 x146
  +1 x147 +1 x148 >= +1
 c13: +1 x4 +1 x10 +1 x17 +1 x25 +1 x28 +1 x31 +1 x34 +1 x44 +1 x54 +1 x80 +1 x81 +1 x87 +1 x89 +1 x93
  +1 x97 +1 x104 +1 x107 +1 x109 +1 x113 +1 x115 +1 x120 +1 x144 +1 x146 +1 x148 >= +1
 c14: +1 x2 +1 x4 +1 x5 +1 x6 +1 x11 +1 x23 +1 x24 +1 x28 +1 x36 +1 x43 +1 x44 +1 x56 +1 x57 +1 x60 +1 x61
  +1 x63 +1 x67 +1 x73 +1 x77 +1 x79 +1 x82 +1 x89 +1 x91 +1 x92 +1 x100 +1 x102 +1 x105 +1 x108 +1 x113
  +1 x117 +1 x127 +1 x130 +1 x138 +1 x141 +1 x147 +1 x148 >= +1
 c15: +1 x2 +1 x11 +1 x12 +1 x14 +1 x16 +1 x31 +1 x39 +1 x44 +1 x46 +1 x48 +1 x67 +1 x68 +1 x72 +1 x74
  +1 x81 +1 x82 +1 x85 +1 x97 +1 x103 +1 x108 +1 x110 +1 x123 +1 x126 +1 x127 +1 x133 +1 x137 +1 x141
  +1 x145 >= +1
 c16: +1 x3 +1 x8 +1 x11 +1 x14 +1 x20 +1 x21 +1 x22 +1 x26 +1 x30 +1 x31 +1 x41 +1 x44 +1 x47 +1 x52
  +1 x55 +1 x65 +1 x70 +1 x71 +1 x75 +1 x76 +1 x79 +1 x81 +1 x82 +1 x86 +1 x90 +1 x95 +1 x100 +1 x103
  +1 x107 +1 x108 +1 x111 +1 x115 +1 x116 +1 x124 +1 x135 +1 x138 +1 x143 +1 x144 +1 x147 >= +1
 c17: +1 x1 +1 x4 +1 x10 +1 x19 +1 x41 +1 x43 +1 x44 +1 x47 +1 x53 +1 x57 +1 x64 +1 x66 +1 x70 +1 x71
  +1 x72 +1 x74 +1 x81 +1 x86 +1 x89 +1 x97 +1 x103 +1 x105 +1 x116 +1 x122 +1 x124 +1 x125 +1 x133 +1 x136
  +1 x143 >= +1
 c18: +1 x1 +1 x5 +1 x17 +1 x18 +1 x27 +1 x30 +1 x36 +1 x38 +1 x41 +1 x48 +1 x53 +1 x56 +1 x59 +1 x60
  +1 x66 +1 x67 +1 x68 +1 x72 +1 x73 +1 x86 +1 x91 +1 x102 +1 x111 +1 x115 +1 x122 +1 x135 +1 x137 +1 x138
  +1 x149 >= +1
 c19: +1 x2 +1 x9 +1 x12 +1 x18 +1 x19 +1 x22 +1 x33 +1 x38 +1 x45 +1 x50 +1 x58 +1 x60 +1 x64 +1 x67
  +1 x72 +1 x87 +1 x96 +1 x102 +1 x104 +1 x105 +1 x107 +1 x108 +1 x113 +1 x117 +1 x124 +1 x126 +1 x130
  >= +1
 c20: +1 x2 +1 x6 +1 x18 +1 x28 +1 x31 +1 x33 +1 x38 +1 x41 +1 x49 +1 x50 +1 x52 +1 x53 +1 x54 +1 x66
  +1 x68 +1 x74 +1 x82 +1 x85 +1 x87 +1 x89 +1 x98 +1 x99 +1 x100 +1 x107 +1 x110 +1 x111 +1 x114 +1 x116
  +1 x124 +1 x141 +1 x144 >= +1
 c21: +1 x1 +1 x8 +1 x10 +1 x14 +1 x24 +1 x25 +1 x26 +1 x31 +1 x33 +1 x42 +1 x47 +1 x51 +1 x66 +1 x73
  +1 x76 +1 x78 +1 x79 +1 x91 +1 x97 +1 x100 +1 x112 +1 x113 +1 x114 +1 x115 +1 x123 >= +1
 c22: +1 x1 +1 x5 +1 x6 +1 x7 +1 x8 +1 x11 +1 x14 +1 x19 +1 x27 +1 x28 +1 x36 +1 x37 +1 x57 +1 x73 +1 x75
  +1 x78 +1 x82 +1 x87 +1 x91 +1 x96 +1 x101 +1 x112 +1 x118 +1 x130 +1 x137 +1 x138 +1 x146 +1 x149 >= +1
 c23: +1 x4 +1 x15 +1 x18 +1 x35 +1 x40 +1 x41 +1 x45 +1 x47 +1 x51 +1 x52 +1 x64 +1 x66 +1 x73 +1 x77
  +1 x82 +1 x89 +1 x90 +1 x91 +1 x96 +1 x98 +1 x105 +1 x110 +1 x124 +1 x126 +1 x131 +1 x132 +1 x133 +1 x134
  +1 x136 +1 x146 >= +1
 c24: +1 x0 +1 x13 +1 x20 +1 x30 +1 x35 +1 x40 +1 x47 +1 x50 +1 x62 +1 x73 +1 x76 +1 x77 +1 x78 +1 x83
  +1 x86 +1 x88 +1 x89 +1 x90 +1 x97 +1 x99 +1 x116 +1 x123 +1 x128 +1 x130 +1 x131 +1 x133 +1 x134 +1 x138
  +1 x145 +1 x147 >= +1
 c25: +1 x4 +1 x33 +1 x34 +1 x38 +1 x40 +1 x44 +1 x48 +1 x49 +1 x50 +1 x51 +1 x52 +1 x55 +1 x58 +1 x60
  +1 x65 +1 x70 +1 x85 +1 x89 +1 x92 +1 x93 +1 x97 +1 x98 +1 x99 +1 x100 +1 x114 +1 x116 +1 x120 +1 x122
  +1 x124 +1 x128 +1 x147 >= +1
 c26: +1 x1 +1 x8 +1 x11 +1 x12 +1 x17 +1 x19 +1 x20 +1 x22 +1 x28 +1 x42 +1 x48 +1 x51 +1 x62 +1 x65
  +1 x66 +1 x73 +1 x78 +1 x80 +1 x83 +1 x87 +1 x92 +1 x95 +1 x96 +1 x106 +1 x110 +1 x115 +1 x117 +1 x122
  +1 x127 +1 x131 +1 x135 +1 x136 +1 x144 +1 x146 +1 x147 +1 x149 >= +1
 c27: +1 x0 +1 x6 +1 x11 +1 x16 +1 x24 +1 x25 +1 x34 +1 x39 +1 x46 +1 x51 +1 x52 +1 x57 +1 x60 +1 x65
  +1 x71 +1 x72 +1 x79 +1 x82 +1 x83 +1 x85 +1 x104 +1 x112 +1 x145 +1 x148 >= +1
 c28: +1 x1 +1 x4 +1 x5 +1 x7 +1 x10 +1 x11 +1 x20 +1 x52 +1 x54 +1 x59 +1 x61 +1 x66 +1 x72 +1 x77 +1 x79
  +1 x81 +1 x86 +1 x91 +1 x96 +1 x99 +1 x108 +1 x109 +1 x110 +1 x114 +1 x116 +1 x122 +1 x127 +1 x129 +1 x135
  +1 x137 >= +1
 c29: +1 x0 +1 x9 +1 x15 +1 x17 +1 x29 +1 x43 +1 x46 +1 x60 +1 x61 +1 x70 +1 x87 +1 x89 +1 x97 +1 x99
  +1 x109 +1 x112 +1 x123 +1 x132 +1 x139 >= +1
 c30: +1 x0 +1 x12 +1 x17 +1 x20 +1 x22 +1 x25 +1 x26 +1 x27 +1 x41 +1 x44 +1 x49 +1 x51 +1 x55 +1 x61
  +1 x67 +1 x71 +1 x72 +1 x77 +1 x86 +1 x95 +1 x106 +1 x108 +1 x112 +1 x113 +1 x145 +1 x146 +1 x147 >= +1
 c31: +1 x4 +1 x5 +1 x9 +1 x18 +1 x25 +1 x35 +1 x36 +1 x45 +1 x46 +1 x49 +1 x53 +1 x55 +1 x57 +1 x61 +1 x64
  +1 x68 +1 x78 +1 x86 +1 x99 +1 x100 +1 x103 +1 x105 +1 x107 +1 x115 +1 x118 +1 x125 +1 x127 +1 x133
  +1 x137 +1 x138 +1 x139 +1 x145 >= +1
 c32: +1 x4 +1 x7 +1 x9 +1 x17 +1 x24 +1 x33 +1 x55 +1 x57 +1 x58 +1 x60 +1 x67 +1 x68 +1 x82 +1 x83 +1 x86
  +1 x95 +1 x102 +1 x103 +1 x118 +1 x124 +1 x136 +1 x140 +1 x146 +1 x149 >= +1
 c33: +1 x3 +1 x11 +1 x14 +1 x16 +1 x25 +1 x26 +1 x29 +1 x30 +1 x31 +1 x32 +1 x33 +1 x35 +1 x40 +1 x43
  +1 x45 +1 x52 +1 x55 +1 x58 +1 x65 +1 x73 +1 x74 +1 x76 +1 x78 +1 x80 +1 x81 +1 x83 +1 x87 +1 x99 +1 x105
  +1 x111 +1 x112 +1 x114 +1 x123 +1 x124 +1 x128 +1 x132 +1 x133 +1 x134 +1 x137 +1 x143 +1 x144 +1 x149
  >= +1
 c34: +1 x3 +1 x9 +1 x11 +1 x13 +1 x19 +1 x33 +1 x38 +1 x39 +1 x40 +1 x44 +1 x46 +1 x48 +1 x55 +1 x60
  +1 x74 +1 x76 +1 x80 +1 x81 +1 x83 +1 x85 +1 x86 +1 x94 +1 x96 +1 x104 +1 x107 +1 x111 +1 x117 +1 x119
  +1 x125 +1 x128 +1 x130 +1 x132 +1 x141 +1 x143 +1 x149 >= +1
 c35: +1 x2 +1 x7 +1 x10 +1 x15 +1 x30 +1 x32 +1 x46 +1 x47 +1 x49 +1 x54 +1 x55 +1 x64 +1 x67 +1 x71
  +1 x73 +1 x80 +1 x85 +1 x98 +1 x100 +1 x102 +1 x115 +1 x117 +1 x119 +1 x120 +1 x124 +1 x137 +1 x139
  +1 x140 +1 x149 >= +1
 c36: +1 x1 +1 x10 +1 x14 +1 x15 +1 x26 +1 x31 +1 x45 +1 x52 +1 x56 +1 x58 +1 x63 +1 x64 +1 x73 +1 x78
  +1 x80 +1 x83 +1 x87 +1 x90 +1 x100 +1 x103 +1 x105 +1 x107 +1 x117 +1 x119 +1 x120 +1 x121 +1 x122
  +1 x123 +1 x126 +1 x128 +1 x138 +1 x140 +1 x143 >= +1
 c37: +1 x3 +1 x9 +1 x10 +1 x12 +1 x17 +1 x18 +1 x23 +1 x27 +1 x31 +1 x32 +1 x36 +1 x38 +1 x39 +1 x47
  +1 x49 +1 x51 +1 x64 +1 x67 +1 x68 +1 x71 +1 x80 +1 x84 +1 x91 +1 x96 +1 x111 +1 x115 +1 x120 +1 x124
  +1 x133 +1 x138 +1 x148 >= +1
 c38: +1 x2 +1 x5 +1 x7 +1 x16 +1 x30 +1 x34 +1 x43 +1 x47 +1 x55 +1 x57 +1 x65 +1 x69 +1 x73 +1 x76 +1 x81
  +1 x82 +1 x86 +1 x94 +1 x102 +1 x109 +1 x113 +1 x122 +1 x123 +1 x124 +1 x125 +1 x127 +1 x128 +1 x130
  +1 x135 +1 x140 +1 x142 +1 x144 +1 x145 +1 x146 +1 x147 +1 x149 >= +1
 c39: +1 x2 +1 x7 +1 x8 +1 x13 +1 x14 +1 x23 +1 x28 +1 x35 +1 x38 +1 x40 +1 x50 +1 x51 +1 x59 +1 x60 +1 x65
  +1 x68 +1 x72 +1 x74 +1 x78 +1 x81 +1 x88 +1 x93 +1 x97 +1 x99 +1 x134 +1 x135 +1 x139 +1 x142 +1 x144
  +1 x146 >= +1
 c40: +1 x4 +1 x8 +1 x13 +1 x17 +1 x19 +1 x20 +1 x32 +1 x35 +1 x36 +1 x44 +1 x54 +1 x56 +1 x65 +1 x72
  +1 x77 +1 x82 +1 x85 +1 x88 +1 x91 +1 x93 +1 x98 +1 x102 +1 x106 +1 x112 +1 x114 +1 x123 +1 x126 +1 x127
  +1 x134 +1 x136 +1 x137 +1 x140 +1 x141 +1 x145 +1 x148 >= +1
 c41: +1 x2 +1 x8 +1 x17 +1 x46 +1 x53 +1 x56 +1 x57 +1 x65 +1 x79 +1 x80 +1 x81 +1 x90 +1 x93 +1 x105
  +1 x106 +1 x117 +1 x120 +1 x125 +1 x127 +1 x129 +1 x132 +1 x136 >= +1
 c42: +1 x3 +1 x23 +1 x34 +1 x37 +1 x41 +1 x44 +1 x54 +1 x55 +1 x56 +1 x60 +1 x84 +1 x85 +1 x89 +1 x97
  +1 x98 +1 x107 +1 x119 +1 x126 +1 x135 +1 x137 +1 x144 +1 x145 >= +1
 c43: +1 x3 +1 x4 +1 x6 +1 x7 +1 x27 +1 x28 +1 x30 +1 x34 +1 x38 +1 x41 +1 x50 +1 x54 +1 x63 +1 x64 +1 x67
  +1 x68 +1 x72 +1 x75 +1 x80 +1 x87 +1 x93 +1 x97 +1 x108 +1 x109 +1 x112 +1 x117 +1 x119 +1 x136 +1 x137
  +1 x140 +1 x144 >= +1
 c44: +1 x1 +1 x5 +1 x14 +1 x23 +1 x25 +1 x26 +1 x27 +1 x36 +1 x47 +1 x62 +1 x63 +1 x65 +1 x67 +1 x70
  +1 x74 +1 x81 +1 x83 +1 x84 +1 x87 +1 x91 +1 x102 +1 x126 +1 x132 +1 x136 +1 x144 >= +1
 c45: +1 x0 +1 x7 +1 x12 +1 x17 +1 x22 +1 x35 +1 x46 +1 x47 +1 x49 +1 x51 +1 x60 +1 x62 +1 x66 +1 x68
  +1 x73 +1 x74 +1 x75 +1 x79 +1 x81 +1 x83 +1 x88 +1 x89 +1 x93 +1 x94 +1 x100 +1 x107 +1 x109 +1 x111
  +1 x115 +1 x117 +1 x120 +1 x138 +1 x139 +1 x149 >= +1
 c46: +1 x1 +1 x8 +1 x9 +1 x18 +1 x20 +1 x33 +1 x38 +1 x46 +1 x58 +1 x65 +1 x67 +1 x68 +1 x77 +1 x88 +1 x89
  +1 x90 +1 x92 +1 x94 +1 x96 +1 x98 +1 x99 +1 x103 +1 x104 +1 x105 +1 x117 +1 x119 +1 x124 +1 x132 +1 x133
  +1 x138 +1 x140 +1 x142 +1 x148 >= +1
 c47: +1 x3 +1 x5 +1 x7 +1 x31 +1 x34 +1 x39 +1 x43 +1 x49 +1 x53 +1 x54 +1 x55 +1 x58 +1 x63 +1 x64 +1 x65
  +1 x73 +1 x75 +1 x87 +1 x91 +1 x95 +1 x96 +1 x98 +1 x99 +1 x105 +1 x112 +1 x114 +1 x116 +1 x125 +1 x135
  +1 x139 +1 x143 +1 x144 +1 x147 >= +1
 c48: +1 x0 +1 x6 +1 x9 +1 x17 +1 x21 +1 x24 +1 x25 +1 x30 +1 x31 +1 x38 +1 x46 +1 x48 +1 x50 +1 x53 +1 x54
  +1 x55 +1 x56 +1 x73 +1 x78 +1 x79 +1 x85 +1 x99 +1 x122 +1 x127 +1 x136 +1 x139 +1 x147 >= +1
 c49: +1 x0 +1 x8 +1 x13 +1 x17 +1 x31 +1 x33 +1 x50 +1 x51 +1 x54 +1 x71 +1 x81 +1 x86 +1 x94 +1 x99
  +1 x104 +1 x108 +1 x110 +1 x111 +1 x119 +1 x125 +1 x132 +1 x138 >= +1
 c50: +1 x1 +1 x6 +1 x12 +1 x18 +1 x34 +1 x36 +1 x46 +1 x55 +1 x62 +1 x67 +1 x76 +1 x77 +1 x78 +1 x95
  +1 x111 +1 x115 +1 x117 +1 x125 +1 x128 +1 x130 +1 x134 +1 x136 +1 x140 >= +1
 c51: +1 x4 +1 x9 +1 x11 +1 x15 +1 x20 +1 x25 +1 x27 +1 x29 +1 x37 +1 x63 +1 x68 +1 x84 +1 x87 +1 x97
  +1 x101 +1 x104 +1 x114 +1 x127 +1 x134 +1 x136 +1 x146 +1 x149 >= +1
 c52: +1 x4 +1 x10 +1 x13 +1 x19 +1 x21 +1 x22 +1 x26 +1 x27 +1 x33 +1 x47 +1 x51 +1 x57 +1 x65 +1 x67
  +1 x68 +1 x69 +1 x70 +1 x72 +1 x74 +1 x78 +1 x89 +1 x91 +1 x112 +1 x118 +1 x120 +1 x124 +1 x125 +1 x127
  +1 x130 +1 x134 +1 x136 +1 x137 +1 x142 +1 x143 +1 x144 +1 x149 >= +1
 c53: +1 x0 +1 x5 +1 x12 +1 x25 +1 x64 +1 x72 +1 x73 +1 x77 +1 x80 +1 x85 +1 x90 +1 x93 +1 x103 +1 x105
  +1 x106 +1 x113 +1 x119 +1 x121 +1 x131 +1 x132 +1 x133 +1 x134 +1 x136 >= +1
 c54: +1 x2 +1 x7 +1 x9 +1 x12 +1 x14 +1 x17 +1 x18 +1 x21 +1 x25 +1 x31 +1 x32 +1 x34 +1 x41 +1 x44 +1 x53
  +1 x64 +1 x66 +1 x76 +1 x80 +1 x89 +1 x90 +1 x93 +1 x95 +1 x96 +1 x98 +1 x103 +1 x105 +1 x119 +1 x121
  +1 x122 +1 x123 +1 x124 +1 x131 +1 x137 +1 x143 >= +1
 c55: +1 x3 +1 x29 +1 x31 +1 x43 +1 x44 +1 x45 +1 x50 +1 x53 +1 x63 +1 x73 +1 x83 +1 x85 +1 x89 +1 x93
  +1 x95 +1 x97 +1 x105 +1 x107 +1 x112 +1 x119 +1 x120 +1 x124 +1 x127 +1 x130 +1 x132 +1 x139 +1 x140
  +1 x141 +1 x143 >= +1
 c56: +1 x0 +1 x5 +1 x7 +1 x8 +1 x12 +1 x17 +1 x21 +1 x30 +1 x40 +1 x49 +1 x54 +1 x55 +1 x65 +1 x70 +1 x78
  +1 x87 +1 x95 +1 x101 +1 x104 +1 x111 +1 x125 +1 x126 +1 x128 +1 x135 +1 x136 +1 x142 >= +1
 c57: +1 x0 +1 x6 +1 x14 +1 x22 +1 x32 +1 x40 +1 x50 +1 x60 +1 x64 +1 x73 +1 x74 +1 x88 +1 x97 +1 x99
  +1 x102 +1 x103 +1 x114 +1 x123 +1 x128 +1 x129 +1 x140 +1 x149 >= +1
 c58: +1 x3 +1 x6 +1 x24 +1 x30 +1 x32 +1 x35 +1 x39 +1 x48 +1 x49 +1 x58 +1 x59 +1 x72 +1 x77 +1 x78
  +1 x81 +1 x83 +1 x102 +1 x104 +1 x129 +1 x132 +1 x133 +1 x139 +1 x140 +1 x145 +1 x148 >= +1
 c59: +1 x4 +1 x5 +1 x8 +1 x13 +1 x14 +1 x24 +1 x30 +1 x40 +1 x45 +1 x47 +1 x48 +1 x61 +1 x70 +1 x73 +1 x84
  +1 x93 +1 x98 +1 x99 +1 x105 +1 x112 +1 x113 +1 x122 +1 x124 +1 x125 +1 x129 +1 x134 +1 x138 +1 x143
  +1 x145 +1 x146 +1 x148 >= +1
 c60: +1 x4 +1 x6 +1 x7 +1 x18 +1 x22 +1 x23 +1 x26 +1 x45 +1 x55 +1 x60 +1 x72 +1 x84 +1 x86 +1 x88 +1 x89
  +1 x95 +1 x105 +1 x106 +1 x108 +1 x110 +1 x120 +1 x122 +1 x126 +1 x129 +1 x139 +1 x145 >= +1
 c61: +1 x2 +1 x4 +1 x6 +1 x14 +1 x25 +1 x33 +1 x35 +1 x37 +1 x38 +1 x59 +1 x60 +1 x61 +1 x62 +1 x63 +1 x66
  +1 x81 +1 x82 +1 x83 +1 x92 +1 x98 +1 x100 +1 x101 +1 x104 +1 x111 +1 x126 +1 x129 +1 x132 +1 x136 +1 x139
  +1 x141 >= +1
 c62: +1 x3 +1 x5 +1 x8 +1 x15 +1 x23 +1 x26 +1 x30 +1 x36 +1 x42 +1 x43 +1 x50 +1 x60 +1 x61 +1 x67 +1 x68
  +1 x71 +1 x73 +1 x77 +1 x78 +1 x80 +1 x102 +1 x110 +1 x111 +1 x114 +1 x115 +1 x122 +1 x127 +1 x128 +1 x131
  +1 x133 +1 x140 >= +1
 c63: +1 x3 +1 x12 +1 x19 +1 x20 +1 x30 +1 x38 +1 x41 +1 x45 +1 x48 +1 x49 +1 x50 +1 x52 +1 x54 +1 x66
  +1 x67 +1 x72 +1 x78 +1 x79 +1 x84 +1 x87 +1 x91 +1 x95 +1 x107 +1 x109 +1 x110 +1 x113 +1 x124 +1 x129
  +1 x130 +1 x132 +1 x134 +1 x140 +1 x145 >= +1
 c64: +1 x2 +1 x11 +1 x15 +1 x20 +1 x33 +1 x34 +1 x43 +1 x55 +1 x56 +1 x58 +1 x59 +1 x69 +1 x76 +1 x79
  +1 x83 +1 x90 +1 x101 +1 x102 +1 x106 +1 x107 +1 x109 +1 x111 +1 x112 +1 x117 +1 x121 +1 x126 +1 x135
  +1 x141 >= +1
 c65: +1 x4 +1 x6 +1 x13 +1 x17 +1 x18 +1 x19 +1 x22 +1 x32 +1 x38 +1 x39 +1 x41 +1 x45 +1 x53 +1 x59
  +1 x61 +1 x75 +1 x76 +1 x83 +1 x89 +1 x91 +1 x92 +1 x95 +1 x98 +1 x102 +1 x109 +1 x113 +1 x118 +1 x132
  +1 x133 +1 x138 +1 x139 +1 x145 >= +1
 c66: +1 x3 +1 x11 +1 x18 +1 x34 +1 x54 +1 x60 +1 x61 +1 x64 +1 x69 +1 x70 +1 x77 +1 x80 +1 x83 +1 x88
  +1 x90 +1 x91 +1 x99 +1 x102 +1 x109 +1 x117 +1 x118 +1 x126 +1 x127 +1 x129 +1 x135 +1 x148 >= +1
 c67: +1 x3 +1 x21 +1 x23 +1 x24 +1 x25 +1 x28 +1 x32 +1 x36 +1 x45 +1 x46 +1 x47 +1 x48 +1 x49 +1 x52
  +1 x55 +1 x56 +1 x72 +1 x73 +1 x77 +1 x79 +1 x80 +1 x84 +1 x85 +1 x91 +1 x96 +1 x97 +1 x100 +1 x107
  +1 x111 +1 x113 +1 x120 +1 x123 +1 x126 +1 x130 +1 x133 +1 x135 +1 x141 +1 x146 +1 x149 >= +1
 c68: +1 x3 +1 x9 +1 x12 +1 x18 +1 x27 +1 x31 +1 x33 +1 x40 +1 x44 +1 x46 +1 x47 +1 x51 +1 x54 +1 x58
  +1 x59 +1 x71 +1 x73 +1 x86 +1 x92 +1 x95 +1 x107 +1 x108 +1 x112 +1 x114 +1 x118 +1 x122 +1 x128 +1 x130
  +1 x134 +1 x142 +1 x144 +1 x145 +1 x147 +1 x149 >= +1
 c69: +1 x0 +1 x8 +1 x9 +1 x11 +1 x12 +1 x15 +1 x17 +1 x18 +1 x29 +1 x33 +1 x43 +1 x47 +1 x55 +1 x57 +1 x58
  +1 x63 +1 x64 +1 x65 +1 x66 +1 x69 +1 x71 +1 x72 +1 x76 +1 x88 +1 x90 +1 x98 +1 x102 +1 x103 +1 x107
  +1 x112 +1 x116 +1 x120 +1 x121 +1 x127 +1 x130 +1 x131 +1 x133 +1 x145 >= +1
 c70: +1 x0 +1 x7 +1 x10 +1 x11 +1 x13 +1 x27 +1 x29 +1 x39 +1 x42 +1 x46 +1 x47 +1 x52 +1 x57 +1 x59
  +1 x60 +1 x66 +1 x68 +1 x69 +1 x72 +1 x75 +1 x77 +1 x81 +1 x86 +1 x88 +1 x90 +1 x98 +1 x101 +1 x109
  +1 x111 +1 x112 +1 x118 +1 x119 +1 x120 +1 x124 +1 x127 +1 x128 +1 x133 +1 x136 +1 x140 +1 x141 +1 x142
  +1 x148 +1 x149 >= +1
 c71: +1 x2 +1 x5 +1 x6 +1 x8 +1 x9 +1 x10 +1 x12 +1 x17 +1 x18 +1 x22 +1 x25 +1 x26 +1 x29 +1 x31 +1 x34
  +1 x35 +1 x37 +1 x49 +1 x53 +1 x54 +1 x55 +1 x68 +1 x72 +1 x83 +1 x89 +1 x94 +1 x100 +1 x102 +1 x110
  +1 x117 +1 x120 +1 x145 +1 x146 >= +1
 c72: +1 x4 +1 x6 +1 x10 +1 x17 +1 x26 +1 x27 +1 x33 +1 x36 +1 x37 +1 x44 +1 x56 +1 x59 +1 x65 +1 x66
  +1 x67 +1 x73 +1 x79 +1 x85 +1 x86 +1 x87 +1 x88 +1 x99 +1 x100 +1 x101 +1 x106 +1 x114 +1 x117 +1 x118
  +1 x124 >= +1
 c73: +1 x4 +1 x6 +1 x9 +1 x11 +1 x19 +1 x23 +1 x34 +1 x36 +1 x39 +1 x40 +1 x44 +1 x51 +1 x79 +1 x82 +1 x85
  +1 x86 +1 x89 +1 x99 +1 x100 +1 x102 +1 x106 +1 x108 +1 x111 +1 x117 +1 x121 +1 x125 +1 x127 +1 x130
  +1 x132 +1 x145 +1 x147 +1 x148 >= +1
 c74: +1 x3 +1 x7 +1 x8 +1 x20 +1 x22 +1 x26 +1 x29 +1 x35 +1 x38 +1 x52 +1 x55 +1 x57 +1 x61 +1 x68 +1 x71
  +1 x91 +1 x94 +1 x95 +1 x99 +1 x100 +1 x114 +1 x115 +1 x118 +1 x136 +1 x138 +1 x146 +1 x149 >= +1
 c75: +1 x4 +1 x8 +1 x10 +1 x16 +1 x18 +1 x22 +1 x36 +1 x48 +1 x50 +1 x51 +1 x59 +1 x61 +1 x87 +1 x88
  +1 x90 +1 x98 +1 x106 +1 x107 +1 x115 +1 x116 +1 x121 +1 x123 +1 x127 +1 x128 +1 x129 +1 x136 +1 x143
  +1 x149 >= +1
 c76: +1 x3 +1 x14 +1 x20 +1 x25 +1 x42 +1 x46 +1 x47 +1 x49 +1 x62 +1 x68 +1 x74 +1 x76 +1 x80 +1 x85
  +1 x86 +1 x87 +1 x102 +1 x114 +1 x123 +1 x124 +1 x128 +1 x134 +1 x145 >= +1
 c77: +1 x1 +1 x12 +1 x13 +1 x14 +1 x23 +1 x25 +1 x28 +1 x29 +1 x35 +1 x37 +1 x42 +1 x43 +1 x49 +1 x51
  +1 x58 +1 x68 +1 x73 +1 x75 +1 x81 +1 x90 +1 x91 +1 x95 +1 x97 +1 x101 +1 x103 +1 x107 +1 x131 +1 x133
  +1 x140 +1 x148 >= +1
 c78: +1 x0 +1 x17 +1 x18 +1 x23 +1 x26 +1 x29 +1 x37 +1 x40 +1 x66 +1 x68 +1 x69 +1 x71 +1 x78 +1 x80
  +1 x89 +1 x93 +1 x95 +1 x119 +1 x122 +1 x126 +1 x127 +1 x139 +1 x142 +1 x147 >= +1
 c79: +1 x2 +1 x11 +1 x14 +1 x21 +1 x29 +1 x35 +1 x44 +1 x46 +1 x47 +1 x62 +1 x69 +1 x71 +1 x79 +1 x81
  +1 x91 +1 x96 +1 x98 +1 x103 +1 x104 +1 x106 +1 x108 +1 x121 +1 x127 +1 x134 +1 x137 +1 x142 +1 x144
  +1 x147 >= +1
 c80: +1 x1 +1 x5 +1 x10 +1 x14 +1 x20 +1 x25 +1 x35 +1 x44 +1 x45 +1 x53 +1 x58 +1 x60 +1 x68 +1 x71
  +1 x74 +1 x75 +1 x78 +1 x80 +1 x88 +1 x94 +1 x99 +1 x103 +1 x107 +1 x120 +1 x125 +1 x129 +1 x135 +1 x138
  +1 x139 >= +1
 c81: +1 x4 +1 x5 +1 x6 +1 x9 +1 x16 +1 x21 +1 x24 +1 x38 +1 x41 +1 x43 +1 x45 +1 x46 +1 x47 +1 x53 +1 x67
  +1 x69 +1 x77 +1 x80 +1 x84 +1 x97 +1 x98 +1 x103 +1 x108 +1 x109 +1 x110 +1 x113 +1 x117 +1 x118 +1 x120
  +1 x140 +1 x143 >= +1
 c82: +1 x2 +1 x6 +1 x8 +1 x9 +1 x13 +1 x24 +1 x29 +1 x31 +1 x38 +1 x40 +1 x42 +1 x46 +1 x52 +1 x56 +1 x57
  +1 x62 +1 x64 +1 x65 +1 x68 +1 x72 +1 x74 +1 x78 +1 x79 +1 x83 +1 x85 +1 x89 +1 x96 +1 x97 +1 x99 +1 x103
  +1 x105 +1 x111 +1 x112 +1 x115 +1 x119 +1 x121 +1 x123 +1 x124 +1 x125 +1 x126 +1 x131 +1 x140 +1 x141
  +1 x144 >= +1
 c83: +1 x0 +1 x6 +1 x10 +1 x17 +1 x27 +1 x38 +1 x39 +1 x43 +1 x46 +1 x50 +1 x52 +1 x64 +1 x68 +1 x84
  +1 x91 +1 x96 +1 x99 +1 x100 +1 x103 +1 x105 +1 x110 +1 x120 +1 x126 +1 x129 +1 x138 +1 x139 +1 x145
  +1 x148 >= +1
 c84: +1 x0 +1 x6 +1 x18 +1 x47 +1 x57 +1 x62 +1 x91 +1 x94 +1 x97 +1 x98 +1 x101 +1 x103 +1 x104 +1 x112
  +1 x117 +1 x133 +1 x135 +1 x142 +1 x147 >= +1
 c85: +1 x1 +1 x14 +1 x16 +1 x17 +1 x29 +1 x32 +1 x34 +1 x35 +1 x49 +1 x50 +1 x53 +1 x56 +1 x57 +1 x58
  +1 x65 +1 x69 +1 x91 +1 x97 +1 x105 +1 x109 +1 x116 +1 x118 +1 x123 +1 x125 +1 x127 +1 x131 +1 x133
  +1 x136 +1 x137 +1 x138 +1 x139 +1 x145 +1 x147 >= +1
 c86: +1 x2 +1 x7 +1 x9 +1 x13 +1 x23 +1 x25 +1 x30 +1 x32 +1 x45 +1 x50 +1 x68 +1 x69 +1 x71 +1 x73 +1 x76
  +1 x87 +1 x89 +1 x98 +1 x100 +1 x102 +1 x109 +1 x110 +1 x115 +1 x121 +1 x126 +1 x130 +1 x132 +1 x137
  +1 x144 +1 x147 +1 x148 >= +1
 c87: +1 x0 +1 x7 +1 x10 +1 x13 +1 x18 +1 x25 +1 x29 +1 x39 +1 x46 +1 x49 +1 x53 +1 x56 +1 x64 +1 x77
  +1 x82 +1 x83 +1 x90 +1 x91 +1 x105 +1 x110 +1 x117 +1 x118 +1 x122 +1 x126 +1 x134 +1 x135 +1 x138
  +1 x148 >= +1
 c88: +1 x2 +1 x5 +1 x10 +1 x12 +1 x16 +1 x17 +1 x23 +1 x31 +1 x35 +1 x36 +1 x41 +1 x50 +1 x58 +1 x66
  +1 x68 +1 x76 +1 x82 +1 x83 +1 x89 +1 x95 +1 x112 +1 x119 +1 x120 +1 x121 +1 x124 +1 x126 +1 x127 +1 x130
  +1 x133 +1 x148 >= +1
 c89: +1 x0 +1 x5 +1 x10 +1 x13 +1 x17 +1 x31 +1 x37 +1 x39 +1 x40 +1 x50 +1 x51 +1 x61 +1 x63 +1 x70
  +1 x75 +1 x79 +1 x80 +1 x85 +1 x90 +1 x99 +1 x101 +1 x110 +1 x118 +1 x120 +1 x125 +1 x127 +1 x130 +1 x131
  +1 x133 +1 x134 +1 x140 +1 x147 >= +1
 c90: +1 x2 +1 x11 +1 x12 +1 x17 +1 x18 +1 x19 +1 x22 +1 x25 +1 x35 +1 x37 +1 x39 +1 x56 +1 x57 +1 x61
  +1 x72 +1 x76 +1 x79 +1 x87 +1 x89 +1 x97 +1 x100 +1 x104 +1 x105 +1 x106 +1 x107 +1 x108 +1 x111 +1 x114
  +1 x123 +1 x124 +1 x137 +1 x139 +1 x145 +1 x149 >= +1
 c91: +1 x4 +1 x12 +1 x18 +1 x27 +1 x32 +1 x34 +1 x35 +1 x47 +1 x51 +1 x54 +1 x57 +1 x58 +1 x62 +1 x69
  +1 x70 +1 x76 +1 x79 +1 x81 +1 x89 +1 x91 +1 x97 +1 x99 +1 x102 +1 x104 +1 x108 +1 x113 +1 x121 +1 x126
  +1 x130 +1 x131 +1 x132 +1 x134 +1 x135 +1 x136 +1 x137 +1 x139 +1 x140 +1 x148 >= +1
 c92: +1 x3 +1 x4 +1 x8 +1 x10 +1 x13 +1 x26 +1 x27 +1 x30 +1 x31 +1 x36 +1 x40 +1 x44 +1 x59 +1 x61 +1 x63
  +1 x64 +1 x76 +1 x82 +1 x83 +1 x84 +1 x92 +1 x95 +1 x98 +1 x105 +1 x112 +1 x117 +1 x120 +1 x122 +1 x127
  +1 x131 +1 x134 +1 x137 +1 x139 +1 x143 >= +1
 c93: +1 x2 +1 x5 +1 x11 +1 x15 +1 x23 +1 x28 +1 x29 +1 x30 +1 x31 +1 x35 +1 x45 +1 x54 +1 x63 +1 x75
  +1 x76 +1 x80 +1 x82 +1 x92 +1 x97 +1 x99 +1 x106 +1 x131 +1 x139 +1 x144 >= +1
 c94: +1 x2 +1 x5 +1 x7 +1 x9 +1 x20 +1 x21 +1 x24 +1 x29 +1 x31 +1 x35 +1 x36 +1 x45 +1 x55 +1 x56 +1 x57
  +1 x58 +1 x64 +1 x68 +1 x71 +1 x76 +1 x85 +1 x91 +1 x103 +1 x104 +1 x108 +1 x110 +1 x118 +1 x119 +1 x122
  +1 x123 +1 x130 +1 x134 +1 x137 +1 x138 +1 x147 >= +1
 c95: +1 x3 +1 x6 +1 x13 +1 x17 +1 x22 +1 x23 +1 x26 +1 x39 +1 x46 +1 x49 +1 x54 +1 x57 +1 x66 +1 x70
  +1 x79 +1 x84 +1 x85 +1 x91 +1 x97 +1 x99 +1 x102 +1 x104 +1 x115 +1 x119 +1 x126 +1 x128 +1 x129 +1 x141
  +1 x143 +1 x146 >= +1
 c96: +1 x2 +1 x4 +1 x16 +1 x17 +1 x31 +1 x34 +1 x37 +1 x38 +1 x39 +1 x42 +1 x56 +1 x70 +1 x74 +1 x105
  +1 x111 +1 x114 +1 x122 +1 x127 +1 x134 +1 x137 +1 x145 +1 x146 >= +1
 c97: +1 x1 +1 x5 +1 x6 +1 x12 +1 x31 +1 x40 +1 x46 +1 x48 +1 x64 +1 x68 +1 x72 +1 x74 +1 x75 +1 x78 +1 x82
  +1 x88 +1 x89 +1 x91 +1 x108 +1 x111 +1 x112 +1 x121 +1 x123 +1 x124 +1 x126 +1 x130 +1 x132 +1 x141
  >= +1
 c98: +1 x2 +1 x9 +1 x18 +1 x24 +1 x27 +1 x31 +1 x40 +1 x45 +1 x49 +1 x51 +1 x53 +1 x65 +1 x67 +1 x82
  +1 x87 +1 x94 +1 x96 +1 x99 +1 x101 +1 x105 +1 x119 +1 x121 +1 x125 +1 x127 +1 x131 +1 x134 +1 x140
  +1 x146 >= +1
 c99: +1 x2 +1 x8 +1 x11 +1 x12 +1 x21 +1 x22 +1 x23 +1 x26 +1 x28 +1 x30 +1 x49 +1 x60 +1 x62 +1 x65
  +1 x66 +1 x68 +1 x72 +1 x81 +1 x86 +1 x92 +1 x95 +1 x96 +1 x99 +1 x104 +1 x105 +1 x118 +1 x127 +1 x129
  +1 x136 +1 x144 +1 x148 >= +1
Bounds
 0 <= x0 <= 1
 0 <= x1 <= 1
 0 <= x2 <= 1
 0 <= x3 <= 1
 0 <= x4 <= 1
 0 <= x5 <= 1
 0 <= x6 <= 1
 0 <= x7 <= 1
 0 <= x8 <= 1
 0 <= x9 <= 1
 0 <= x10 <= 1
 0 <= x11 <= 1
 0 <= x12 <= 1
 0 <= x13 <= 1
 0 <= x14 <= 1
 0 <= x15 <= 1
 0 <= x16 <= 1
 0 <= x17 <= 1
 0 <= x18 <= 1
 0 <= x19 <= 1
 0 <= x20 <= 1
 0 <= x21 <= 1
 0 <= x22 <= 1
 0 <= x23 <= 1
 0 <= x24 <= 1
 0 <= x25 <= 1
 0 <= x26 <= 1
 0 <= x27 <= 1
 0 <= x28 <= 1
 0 <= x29 <= 1
 0 <= x30 <= 1
 0 <= x31 <= 1
 0 <= x32 <= 1
 0 <= x33 <= 1
 0 <= x34 <= 1
 0 <= x35 <= 1
 0 <= x36 <= 1
 0 <= x37 <= 1
 0 <= x38 <= 1
 0 <= x39 <= 1
 0 <= x40 <= 1
 0 <= x41 <= 1
 0 <= x42 <= 1
 0 <= x43 <= 1
 0 <= x44 <= 1
 0 <= x45 <= 1
 0 <= x46 <= 1
 0 <= x47 <= 1
 0 <= x48 <= 1
 0 <= x49 <= 1
 0 <= x50 <= 1
 0 <= x51 <= 1
 0 <= x52 <= 1
 0 <= x53 <= 1
 0 <= x54 <= 1
 0 <= x55 <= 1
 0 <= x56 <= 1
 0 <= x57 <= 1
 0 <= x58 <= 1
 0 <= x59 <= 1
 0 <= x60 <= 1
 0 <= x61 <= 1
 0 <= x62 <= 1
 0 <= x63 <= 1
 0 <= x64 <= 1
 0 <= x65 <= 1
 0 <= x66 <= 1
 0 <= x67 <= 1
 0 <= x68 <= 1
 0 <= x69 <= 1
 0 <= x70 <= 1
 0 <= x71 <= 1
 0 <= x72 <= 1
 0 <= x73 <= 1
 0 <= x74 <= 1
 0 <= x75 <= 1
 0 <= x76 <= 1
 0 <= x77 <= 1
 0 <= x78 <= 1
 0 <= x79 <= 1
 0 <= x80 <= 1
 0 <= x81 <= 1
 0 <= x82 <= 1
 0 <= x83 <= 1
 0 <= x84 <= 1
 0 <= x85 <= 1
 0 <= x86 <= 1
 0 <= x87 <= 1
 0 <= x88 <= 1
 0 <= x89 <= 1
 0 <= x90 <= 1
 0 <= x91 <= 1
 0 <= x92 <= 1
 0 <= x93 <= 1
 0 <= x94 <= 1
 0 <= x95 <= 1
 0 <= x96 <= 1
 0 <= x97 <= 1
 0 <= x98 <= 1
 0 <= x99 <= 1
 0 <= x100 <= 1
 0 <= x101 <= 1
 0 <= x102 <= 1
 0 <= x103 <= 1
 0 <= x104 <= 1
 0 <= x105 <= 1
 0 <= x106 <= 1
 0 <= x107 <= 1
 0 <= x108 <= 1
 0 <= x109 <= 1
 0 <= x110 <= 1
 0 <= x111 <= 1
 0 <= x112 <= 1
 0 <= x113 <= 1
 0 <= x114 <= 1
 0 <= x115 <= 1
 0 <= x116 <= 1
 0 <= x117 <= 1
 0 <= x118 <= 1
 0 <= x119 <= 1
 0 <= x120 <= 1
 0 <= x121 <= 1
 0 <= x122 <= 1
 0 <= x123 <= 1
 0 <= x124 <= 1
 0 <= x125 <= 1
 0 <= x126 <= 1
 0 <= x127 <= 1
 0 <= x128 <= 1
 0 <= x129 <= 1
 0 <= x130 <= 1
 0 <= x131 <= 1
 0 <= x132 <= 1
 0 <= x133 <= 1
 0 <= x134 <= 1
 0 <= x135 <= 1
 0 <= x136 <= 1
 0 <= x137 <= 1
 0 <= x138 <= 1
 0 <= x139 <= 1
 0 <= x140 <= 1
 0 <= x141 <= 1
 0 <= x142 <= 1
 0 <= x143 <= 1
 0 <= x144 <= 1
 0 <= x145 <= 1
 0 <= x146 <= 1
 0 <= x147 <= 1
 0 <= x148 <= 1
 0 <= x149 <= 1
Binaries
 x0 x1 x2 x3 x4 x5 x6 x7 x8 x9 x10 x11 x12 x13 x14 x15 x16 x17 x18 x19 x20 x21 x22 x23 x24 x25 x26 x27
 x28 x29 x30 x31 x32 x33 x34 x35 x36 x37 x38 x39 x40 x41 x42 x43 x44 x45 x46 x47 x48 x49 x50 x51 x52 x53
 x54 x55 x56 x57 x58 x59 x60 x61 x62 x63 x64 x65 x66 x67 x68 x69 x70 x71 x72 x73 x74 x75 x76 x77 x78 x79
 x80 x81 x82 x83 x84 x85 x86 x87 x88 x89 x90 x91 x92 x93 x94 x95 x96 x97 x98 x99 x100 x101 x102 x103 x104
 x105 x106 x107 x108 x109 x110 x111 x112 x113 x114 x115 x116 x117 x118 x119 x120 x121 x122 x123 x124 x125
 x126 x127 x128 x129 x130 x131 x132 x133 x134 x135 x136 x137 x138 x139 x140 x141 x142 x143 x144 x145 x146
 x147 x148 x149
End
